n = 20;
costtab =
  [|1, 14, 20, -623,
   |1, 20, 20, -1125,
   |1, 1, 1, 0,
   |2, 9, 10, -881,
   |2, 9, 14, -890,
   |2, 10, 9, -791,
   |2, 10, 14, -781,
   |2, 14, 9, -869,
   |2, 14, 10, -850,
   |2, 2, 2, 0,
   |3, 3, 3, 0,
   |4, 5, 16, -1120,
   |4, 5, 19, -1119,
   |4, 16, 5, -1438,
   |4, 16, 19, -1438,
   |4, 19, 5, -642,
   |4, 19, 16, -643,
   |4, 4, 4, 0,
   |5, 4, 13, -1113,
   |5, 4, 16, -1099,
   |5, 4, 19, -1120,
   |5, 13, 4, -943,
   |5, 13, 16, -934,
   |5, 13, 19, -942,
   |5, 16, 4, -593,
   |5, 16, 13, -597,
   |5, 16, 19, -602,
   |5, 19, 4, -697,
   |5, 19, 13, -688,
   |5, 19, 16, -685,
   |5, 5, 5, 0,
   |6, 7, 9, -812,
   |6, 7, 10, -836,
   |6, 7, 13, -849,
   |6, 7, 17, -836,
   |6, 9, 7, -575,
   |6, 9, 10, -598,
   |6, 9, 13, -591,
   |6, 9, 17, -606,
   |6, 10, 7, -782,
   |6, 10, 9, -782,
   |6, 10, 13, -786,
   |6, 10, 17, -788,
   |6, 13, 7, -758,
   |6, 13, 9, -738,
   |6, 13, 10, -749,
   |6, 13, 17, -758,
   |6, 17, 7, -614,
   |6, 17, 9, -621,
   |6, 17, 10, -619,
   |6, 17, 13, -626,
   |6, 6, 6, 0,
   |7, 6, 8, -814,
   |7, 6, 9, -853,
   |7, 8, 6, -1018,
   |7, 8, 9, -1015,
   |7, 9, 6, -1395,
   |7, 9, 8, -1353,
   |7, 7, 7, 0,
   |8, 7, 12, -1051,
   |8, 7, 15, -1048,
   |8, 7, 18, -1055,
   |8, 12, 7, -609,
   |8, 12, 15, -595,
   |8, 12, 18, -613,
   |8, 15, 7, -682,
   |8, 15, 12, -672,
   |8, 15, 18, -675,
   |8, 18, 7, -780,
   |8, 18, 12, -781,
   |8, 18, 15, -766,
   |8, 8, 8, 0,
   |9, 2, 6, -877,
   |9, 2, 7, -873,
   |9, 2, 14, -883,
   |9, 6, 2, -600,
   |9, 6, 7, -615,
   |9, 6, 14, -584,
   |9, 7, 2, -1376,
   |9, 7, 6, -1395,
   |9, 7, 14, -1360,
   |9, 14, 2, -546,
   |9, 14, 6, -523,
   |9, 14, 7, -519,
   |9, 20, 2, -734,
   |9, 20, 6, -767,
   |9, 20, 7, -770,
   |9, 20, 14, -753,
   |9, 9, 9, 0,
   |10, 2, 6, -789,
   |10, 2, 17, -788,
   |10, 2, 19, -765,
   |10, 6, 2, -786,
   |10, 6, 17, -796,
   |10, 6, 19, -778,
   |10, 17, 2, -897,
   |10, 17, 6, -908,
   |10, 17, 19, -897,
   |10, 19, 2, -636,
   |10, 19, 6, -652,
   |10, 19, 17, -658,
   |10, 10, 10, 0,
   |11, 12, 13, -734,
   |11, 13, 12, -1040,
   |11, 20, 12, -1903,
   |11, 20, 13, -1918,
   |11, 11, 11, 0,
   |12, 8, 11, -581,
   |12, 8, 15, -611,
   |12, 8, 18, -594,
   |12, 11, 8, -716,
   |12, 11, 15, -715,
   |12, 11, 18, -744,
   |12, 15, 8, -995,
   |12, 15, 11, -965,
   |12, 15, 18, -983,
   |12, 18, 8, -359,
   |12, 18, 11, -374,
   |12, 18, 15, -364,
   |12, 12, 12, 0,
   |13, 5, 6, -937,
   |13, 5, 11, -943,
   |13, 6, 5, -748,
   |13, 6, 11, -751,
   |13, 11, 5, -1045,
   |13, 11, 6, -1043,
   |13, 20, 5, -1071,
   |13, 20, 6, -1086,
   |13, 20, 11, -1062,
   |13, 13, 13, 0,
   |14, 2, 1, -847,
   |14, 2, 9, -861,
   |14, 9, 1, -540,
   |14, 9, 2, -545,
   |14, 14, 14, 0,
   |15, 8, 12, -689,
   |15, 12, 8, -996,
   |15, 15, 15, 0,
   |16, 4, 5, -1435,
   |16, 4, 19, -1438,
   |16, 5, 4, -611,
   |16, 5, 19, -610,
   |16, 19, 4, -862,
   |16, 19, 5, -856,
   |16, 16, 16, 0,
   |17, 3, 6, -2022,
   |17, 3, 10, -2014,
   |17, 3, 19, -2014,
   |17, 6, 3, -627,
   |17, 6, 10, -624,
   |17, 6, 19, -619,
   |17, 10, 3, -900,
   |17, 10, 6, -905,
   |17, 10, 19, -909,
   |17, 19, 3, -1096,
   |17, 19, 6, -1095,
   |17, 19, 10, -1105,
   |17, 17, 17, 0,
   |18, 8, 12, -778,
   |18, 12, 8, -375,
   |18, 18, 18, 0,
   |19, 4, 5, -619,
   |19, 4, 10, -607,
   |19, 4, 16, -601,
   |19, 4, 17, -620,
   |19, 5, 4, -674,
   |19, 5, 10, -687,
   |19, 5, 16, -695,
   |19, 5, 17, -694,
   |19, 10, 4, -637,
   |19, 10, 5, -662,
   |19, 10, 16, -670,
   |19, 10, 17, -667,
   |19, 16, 4, -819,
   |19, 16, 5, -858,
   |19, 16, 10, -859,
   |19, 16, 17, -857,
   |19, 17, 4, -1083,
   |19, 17, 5, -1103,
   |19, 17, 10, -1102,
   |19, 17, 16, -1103,
   |19, 19, 19, 0,
   |];

